Minimize
  - 63 y_0 - 22 y_1 - 58 y_2 - 30 y_3 - 47 y_4 - 44 y_5 - 31 y_6 - 38 y_7
   - 41 y_8 - 55 y_9 - 37 y_10 - 45 y_11 - 42 y_12 - 8 y_13 - 55 y_14
   - 57 y_15 - 41 y_16 - 42 y_17 - 36 y_18 - 48 y_19 - 58 y_20 - 50 y_21
   - 24 y_22 - 54 y_23 - 55 y_24 - 54 y_25 - 9 y_26 - 22 y_27 - 40 y_28
   - 33 y_29 - 2 y_30 - 43 y_31 - 40 y_32 - 39 y_33 - 37 y_34 - 79 y_35
   - 50 y_36 - 56 y_38 - 28 y_39 - 47 y_40 - 15 y_41 - 29 y_42 - 81 y_43
   - 44 y_44 - 58 y_45 - 26 y_46 - 12 y_47 - 43 y_48 - 32 y_49
   + 2000 Constant
Subject To
 c_0: y_22 = 1
 c_1_0: y_0 + y_4 + y_12 + y_20 >= 1
 c_1_1: y_1 + y_6 + y_8 + y_13 + y_16 + y_26 + y_33 + y_42 + y_47 + y_49
   >= 1
 c_1_2: y_2 + y_9 + y_25 + y_32 + y_40 + y_44 >= 1
 c_1_3: y_3 + y_5 + y_10 + y_18 + y_27 + y_34 >= 1
 c_1_4: y_0 + y_4 + y_7 + y_12 + y_28 + y_29 + y_48 >= 1
 c_1_5: y_3 + y_5 + y_14 + y_18 + y_34 >= 1
 c_1_6: y_1 + y_6 + y_8 + y_16 + y_17 + y_19 + y_33 + y_42 + y_49 >= 1
 c_1_7: y_4 + y_7 + y_12 + y_28 + y_29 + y_39 + y_48 >= 1
 c_1_8: y_1 + y_6 + y_8 + y_15 + y_16 + y_17 + y_19 + y_33 + y_36 + y_38
   + y_42 + y_45 >= 1
 c_1_9: y_2 + y_9 + y_11 + y_25 + y_32 + y_40 + y_44 >= 1
 c_1_10: y_3 + y_10 + y_18 + y_22 + y_27 + y_34 >= 1
 c_1_11: y_9 + y_11 + y_23 + y_24 + y_40 >= 1
 c_1_12: y_0 + y_4 + y_7 + y_12 + y_20 + y_28 + y_29 + y_39 + y_48 >= 1
 c_1_13: y_1 + y_13 + y_26 + y_30 + y_37 + y_46 + y_47 >= 1
 c_1_14: y_5 + y_14 >= 1
 c_1_15: y_8 + y_15 + y_16 + y_19 + y_33 + y_36 + y_38 + y_45 >= 1
 c_1_16: y_1 + y_6 + y_8 + y_15 + y_16 + y_31 + y_33 + y_36 + y_38 + y_42
   + y_49 >= 1
 c_1_17: y_6 + y_8 + y_17 + y_19 + y_33 + y_42 + y_45 >= 1
 c_1_18: y_3 + y_5 + y_10 + y_18 + y_27 + y_34 >= 1
 c_1_19: y_6 + y_8 + y_15 + y_17 + y_19 + y_33 + y_38 + y_42 + y_45 >= 1
 c_1_20: y_0 + y_12 + y_20 + y_24 >= 1
 c_1_21: y_21 + y_31 + y_49 >= 1
 c_1_22: y_10 + y_22 + y_27 + y_32 + y_41 >= 1
 c_1_23: y_11 + y_23 + y_24 + y_40 >= 1
 c_1_24: y_11 + y_20 + y_23 + y_24 >= 1
 c_1_25: y_2 + y_9 + y_25 + y_32 + y_40 + y_44 >= 1
 c_1_26: y_1 + y_13 + y_26 + y_30 + y_37 + y_47 >= 1
 c_1_27: y_3 + y_10 + y_18 + y_22 + y_27 + y_30 + y_34 + y_41 >= 1
 c_1_28: y_4 + y_7 + y_12 + y_28 + y_29 + y_39 + y_48 >= 1
 c_1_29: y_4 + y_7 + y_12 + y_28 + y_29 + y_39 + y_48 >= 1
 c_1_30: y_13 + y_26 + y_27 + y_30 + y_37 + y_41 + y_47 >= 1
 c_1_31: y_16 + y_21 + y_31 + y_36 + y_49 >= 1
 c_1_32: y_2 + y_9 + y_22 + y_25 + y_32 + y_40 + y_44 >= 1
 c_1_33: y_1 + y_6 + y_8 + y_15 + y_16 + y_17 + y_19 + y_33 + y_38 + y_42
   + y_45 >= 1
 c_1_34: y_3 + y_5 + y_10 + y_18 + y_27 + y_34 >= 1
 c_1_35: y_35 + y_43 >= 1
 c_1_36: y_8 + y_15 + y_16 + y_31 + y_36 + y_38 >= 1
 c_1_37: y_13 + y_26 + y_30 + y_37 + y_41 + y_47 >= 1
 c_1_38: y_8 + y_15 + y_16 + y_19 + y_33 + y_36 + y_38 + y_45 >= 1
 c_1_39: y_7 + y_12 + y_28 + y_29 + y_39 + y_48 >= 1
 c_1_40: y_2 + y_9 + y_11 + y_23 + y_25 + y_32 + y_40 + y_44 >= 1
 c_1_41: y_22 + y_27 + y_30 + y_37 + y_41 >= 1
 c_1_42: y_1 + y_6 + y_8 + y_16 + y_17 + y_19 + y_33 + y_42 >= 1
 c_1_43: y_35 + y_43 >= 1
 c_1_44: y_2 + y_9 + y_25 + y_32 + y_40 + y_44 >= 1
 c_1_45: y_8 + y_15 + y_17 + y_19 + y_33 + y_38 + y_45 >= 1
 c_1_46: y_13 + y_46 + y_47 >= 1
 c_1_47: y_1 + y_13 + y_26 + y_30 + y_37 + y_46 + y_47 >= 1
 c_1_48: y_4 + y_7 + y_12 + y_28 + y_29 + y_39 + y_48 >= 1
 c_1_49: y_1 + y_6 + y_16 + y_21 + y_31 + y_49 >= 1
Bounds
 Constant = 1
Binaries
 y_0 y_1 y_2 y_3 y_4 y_5 y_6 y_7 y_8 y_9 y_10 y_11 y_12 y_13 y_14 y_15 y_16
 y_17 y_18 y_19 y_20 y_21 y_22 y_23 y_24 y_25 y_26 y_27 y_28 y_29 y_30 y_31
 y_32 y_33 y_34 y_35 y_36 y_37 y_38 y_39 y_40 y_41 y_42 y_43 y_44 y_45 y_46
 y_47 y_48 y_49
End
